proyfinal/src/viki/013/andrea/andrea-localstore/experimentInOfficeAgust.take6/worker_2/94b86774-1b61-4868-85b5-b299a8be6c5f.als.cnf.out
Reading from standard input... Use '--help' for help.
============================[ Problem Statistics ]=============================
|                                                                             |
|  Number of variables:         87638                                         |
|  Number of clauses:          161767                                         |
|  Parse time:                   0.04 s                                       |
|                                                                             |
============================[ Search Statistics ]==============================
| Conflicts |          ORIGINAL         |          LEARNT          | Progress |
|           |    Vars  Clauses Literals |    Limit  Clauses Lit/Cl |          |
===============================================================================
|       100 |   65093   115077   287391 |    42194      100     20 | 25.725 % |
|       250 |   65093   115077   287391 |    46414      250     43 | 25.725 % |
|       475 |   65092   115033   287301 |    51055      473     44 | 25.726 % |
|       812 |   65092   115033   287301 |    56161      810     86 | 25.726 % |
|      1318 |   65092   115033   287301 |    61777     1316     95 | 25.726 % |
|      2077 |   65092   115033   287301 |    67955     2075     96 | 25.726 % |
|      3216 |   65092   115033   287301 |    74750     3214    105 | 25.726 % |
|      4924 |   65092   115033   287301 |    82225     4922    102 | 25.726 % |
|      7486 |   54175    81976   206201 |    90448     7414     99 | 38.183 % |
|     11330 |   54078    81513   205129 |    99493    11226     98 | 38.294 % |
|     17096 |   53019    77580   195381 |   109442    16499     90 | 39.502 % |
===============================================================================
restarts              : 63
conflicts             : 18709          (6488 /sec)
decisions             : 77430          (0.00 % random) (26851 /sec)
propagations          : 28828254       (9997144 /sec)
conflict literals     : 1580914        (41.16 % deleted)
Memory used           : 43.29 MB
CPU time              : 2.88365 s

INDETERMINATE
